33D32945 STP File, STP Format Version 1.0

SECTION Comments
Name "cube_n12_d3_s9"
Problem "Euclidean Steiner Tree Problem"
Remark "Generated with STPGenerator. 3 dimensions."
END

SECTION Graph
Nodes 12
END

SECTION Coordinates
DDD 0 0.2069654480 0.6995153961 0.2034307295
DDD 1 0.3588790108 0.8845313130 0.4632373589
DDD 2 0.7227528005 0.6292115332 0.7207948913
DDD 3 0.7304651908 0.0540748500 0.9231773037
DDD 4 0.0740991244 0.9287021542 0.8842824203
DDD 5 0.0917933952 0.0898954501 0.3307895457
DDD 6 0.6858023101 0.9032684844 0.0947479369
DDD 7 0.6750120226 0.2615602367 0.2729728470
DDD 8 0.9914577939 0.2373887199 0.3081078475
DDD 9 0.6704191042 0.7412129779 0.2296066420
DDD 10 0.9381766622 0.9481784259 0.9291220382
DDD 11 0.1416073912 0.3070574362 0.8136533512
END
